c Random generated cnf formula, satisfiable: false
p cnf 10 50
-5 -10 3 0
-5 9 -8 0
-5 -6 -10 0
9 -7 -3 0
4 10 -5 0
-1 10 -2 0
6 -7 9 0
-10 -1 -6 0
5 6 9 0
-4 -3 5 0
-4 -7 10 0
-6 -4 -8 0
-4 -10 2 0
5 7 -4 0
8 6 4 0
4 1 -3 0
-2 -8 -1 0
10 -3 -4 0
1 5 -6 0
4 1 -10 0
7 6 3 0
-3 -7 10 0
-5 1 2 0
-4 -1 -5 0
5 10 8 0
10 9 4 0
-7 10 -8 0
-8 -2 4 0
-6 7 -4 0
2 -4 8 0
-3 -9 6 0
-7 -4 3 0
-6 5 4 0
-10 9 -3 0
8 6 -2 0
5 -2 8 0
3 4 -2 0
4 9 -3 0
3 -5 -4 0
5 -1 7 0
5 -7 -2 0
-10 -4 -1 0
-10 9 -3 0
-8 -9 -7 0
-3 -4 -1 0
8 -10 -5 0
3 5 9 0
2 9 -4 0
-4 6 -5 0
-8 6 2 0
